Total weight: 1323.9617157970865
Route 1: 0 42 14 38 44 16 5 96 87 2 21 12 18 7 88 70 77 3 81 20 32 1 24 54 55 25 56 74 58 60 48 0 
Route 2: 0 27 69 28 76 39 67 29 33 30 63 64 49 36 46 45 8 26 68 80 4 98 37 100 91 0 
Route 3: 0 95 43 15 22 73 72 75 23 41 57 40 53 31 10 90 66 65 35 34 9 50 0 
Route 4: 0 52 83 82 47 19 11 62 51 71 78 79 61 84 17 86 85 93 99 59 92 97 13 0 
Route 5: 0 94 6 89 0 
